src/problems/cvrp/data/train_data/train_case_3.vrp
NAME : case_2
TYPE : CVRP
DIMENSION : 10
EDGE_WEIGHT_TYPE : EUC_2D
CAPACITY : 100
NODE_COORD_SECTION
 1 35 35
 2 20 65
 3 35 69
 4 14 37
 5 61 33
 6 9 56
 7 62 48
 8 55 34
 9 51 42
10 12 38
DEMAND_SECTION
 1 0 
 2 27
 3 23
 4 11
 5 14
 6 8
 7 5
 8 8
 9 16
10 31
DEPOT_SECTION
1
-1
EOF
VEHICLE : 2
