src/problems/mkp/data/train_data/train_case_3.mkp
 10 10 
 100 90 300 205 120 160 580 400 140 100
 8 13 80 80 45 28 90 130 32 20
 8 13 100 90 75 28 120 130 32 40
 3 4 20 30 8 3 14 40 6 3
 5 6 40 40 16 5 24 60 16 11
 5 7 50 40 19 7 29 70 21 17
 5 7 55 40 21 9 29 70 21 17
 0 1 10 10 6 6 32 3 0 70
 3 5 20 20 6 12 18 42 9 12
 3 9 30 20 12 12 30 42 18 18
 3 9 35 20 16 15 30 42 20 18
 350 400 100 200 140 190 90 180 170 175