src/problems/tsp/data/train_data/train_case_3.tsp
NAME : case_3
TYPE : TSP
DIMENSION: 5
EDGE_WEIGHT_TYPE : EUC_2D
NODE_COORD_SECTION
1 172  93
2  32  97
3  56  81
4 236  61
5 276  53
EOF
